tsp_instances/TSP20/instance72.tsp
NODE_COORD_SECTION
0 142 102
1 82 50
2 173 168
3 166 117
4 44 174
5 97 23
6 4 196
7 97 7
8 53 28
9 127 189
10 186 50
11 65 42
12 0 160
13 54 93
14 157 136
15 91 127
16 149 123
17 3 152
18 51 157
19 29 159
