tsp_instances/TSP20/instance72.opt.tour
TOUR_SECTION
1
4
17
15
3
10
5
7
13
18
20
19
16
14
2
12
9
8
6
11
-1